(set-info :smt-lib-version 2.6)
(set-logic QF_S)
(set-info :source |
Generated by: Joel Day, Thorsten Ehlers, Mitja Kulczynski, Federico Mora, Florin Manea, Dirk Nowotka, Danny Poulsen, Zhengyang Lu
Application: Test WOORPJE
Target solver: WOORPJE
Publications: Day, J. D., Ehlers, T., Kulczynski, M., Manea, F., Nowotka, D., & Poulsen, D. B. (2019). On solving word equations using SAT. In RP 2019
Description: Transoformed and expanded from Track02
|)
(set-info :license "https://creativecommons.org/licenses/by/4.0/")
(set-info :category "random")
(set-info :status unknown)

(declare-fun H () String)
(declare-fun K () String)
(declare-fun I () String)
(declare-fun G () String)
(declare-fun L () String)
(declare-fun N () String)
(declare-fun O () String)
(declare-fun M () String)
(declare-fun P () String)
(assert (= (str.++  H I "aa" H I "ab" K K "aaaab" L K "b" N "b" P)  (str.++  "a" G G I "aa" I I K I I K "b" K K "a" K K K "a" K "b" M O M O "b" O O "baa") ))
(check-sat)

(exit)
